s td 8 13 20
b 1 1 2 5 6 8 9 10 13 14 15 17 18 19
b 2 2 5 8 9 10 13 14 15 17 18 19 20
b 3 2 3 5 8 10 13 14 15 17 18 20
b 4 3 5 8 10 12 13 14 15 17 18
b 5 3 5 7 10 12 15 18
b 6 1 4 5 6 8 9 10 14 15 17 18 19
b 7 4 6 8 9 10 14 16 17 18 19
b 8 1 5 8 10 11 13 14 15 18 19
1 2
1 6
1 8
2 3
3 4
4 5
6 7
